NAME: burma14
TYPE: TSP
COMMENT: 14-Staedte in Burma (Zaw Win)
DIMENSION: 14
EDGE_WEIGHT_TYPE: GEO
EDGE_WEIGHT_FORMAT: FUNCTION 
DISPLAY_DATA_TYPE: COORD_DISPLAY
NODE_COORD_SECTION
1 1647 9610
2 1647 9444
3 2009 9254
4 2239 9337
5 2523 9724
6 2200 9605
7 2047 9702
8 1720 9629
9 1630 9738
10 1405 9812
11 1653 9738
12 2152 9559
13 1941 9713
14 2009 9455
EOF



